SCIP Status        : solving was interrupted [time limit reached]
Total Time         :    3600.08
  solving          :    3600.00
  presolving       :       0.55 (included in solving)
  reading          :       0.08
  copying          :       0.36 (15 #copies) (minimal 0.01, maximal 0.04, average 0.02)
Original Problem   :
  Problem name     : benchmark/normal_50_30_34.design
  Variables        : 5781 (50 binary, 0 integer, 0 implicit integer, 5731 continuous)
  Constraints      : 7728 initial, 7728 maximal
  Objective        : minimize, 1 non-zeros (abs.min = 1, abs.max = 1)
Presolved Problem  :
  Problem name     : t_benchmark/normal_50_30_34.design
  Variables        : 8213 (50 binary, 0 integer, 0 implicit integer, 8163 continuous)
  Constraints      : 7728 initial, 7729 maximal
  Objective        : minimize, 1 non-zeros (abs.min = 1, abs.max = 1)
  Nonzeros         : 45247 constraint, 0 clique table
Presolvers         :   ExecTime  SetupTime  Calls  FixedVars   AggrVars   ChgTypes  ChgBounds   AddHoles    DelCons    AddCons   ChgSides   ChgCoefs
  boundshift       :       0.00       0.00      0          0          0          0          0          0          0          0          0          0
  convertinttobin  :       0.00       0.00      0          0          0          0          0          0          0          0          0          0
  domcol           :       0.00       0.00      1          0          0          0          0          0          0          0          0          0
  dualagg          :       0.00       0.00      0          0          0          0          0          0          0          0          0          0
  dualcomp         :       0.00       0.00      1          0          0          0          0          0          0          0          0          0
  dualinfer        :       0.00       0.00      0          0          0          0          0          0          0          0          0          0
  dualsparsify     :       0.00       0.00      1          0          0          0          0          0          0          0          0          0
  gateextraction   :       0.00       0.00      0          0          0          0          0          0          0          0          0          0
  implics          :       0.00       0.00      1          0          0          0          0          0          0          0          0          0
  inttobinary      :       0.00       0.00      0          0          0          0          0          0          0          0          0          0
  qpkktref         :       0.00       0.00      0          0          0          0          0          0          0          0          0          0
  redvub           :       0.00       0.00      0          0          0          0          0          0          0          0          0          0
  sparsify         :       0.00       0.00      1          0          0          0          0          0          0          0          0          0
  stuffing         :       0.00       0.00      0          0          0          0          0          0          0          0          0          0
  trivial          :       0.00       0.00      2        435          0          0          0          0          0          0          0          0
  tworowbnd        :       0.00       0.00      0          0          0          0          0          0          0          0          0          0
  dualfix          :       0.00       0.00      2        435          0          0          0          0          0          0          0          0
  genvbounds       :       0.00       0.00      0          0          0          0          0          0          0          0          0          0
  probing          :       0.13       0.00      1          0          0          0          0          0          0          0          0          0
  pseudoobj        :       0.00       0.00      0          0          0          0          0          0          0          0          0          0
  symmetry         :       0.07       0.00      1          0          0          0          0          0          0          0          0          0
  vbounds          :       0.00       0.00      0          0          0          0          0          0          0          0          0          0
  linear           :       0.04       0.02      3          0          0          0          0          0          0          0          0          0
  nonlinear        :       0.27       0.06      4          0          0          0        900          0          0          0          0          0
  benders          :       0.00       0.00      0          0          0          0          0          0          0          0          0          0
  components       :       0.00       0.00      1          0          0          0          0          0          0          0          0          0
  root node        :          -          -      -          0          -          -       8566          -          -          -          -          -
Constraints        :     Number  MaxNumber  #Separate #Propagate    #EnfoLP    #EnfoRelax  #EnfoPS    #Check   #ResProp    Cutoffs    DomReds       Cuts    Applied      Conss   Children
  benderslp        :          0          0          0          0       5071          0          0       1498          0          0          0          0          0          0          0
  integral         :          0          0          0          0       5071          0          0       1498          0          0       1842          0          0          0       5808
  linear           :       5327+      5328         22      63434          3          0          0       1492          0       1629     752066          0          0          0          0
  nonlinear        :       2401       2401      11804      61805       2122          0          0       1117          0       2261    1020157     408184     389056          0          0
  benders          :          0          0          0          0          3          0          0          5          0          0          0          0          0          0          0
  countsols        :          0          0          0          0          3          0          0          5          0          0          0          0          0          0          0
  components       :          0          0          0          0          0          0          0          0          0          0          0          0          0          0          0
Constraint Timings :  TotalTime  SetupTime   Separate  Propagate     EnfoLP     EnfoPS     EnfoRelax   Check    ResProp    SB-Prop
  benderslp        :       0.01       0.00       0.00       0.00       0.01       0.00       0.00       0.00       0.00       0.00
  integral         :      94.75       0.00       0.00       0.00      94.75       0.00       0.00       0.00       0.00       0.00
  linear           :       8.71       0.02       0.02       7.63       0.00       0.00       0.00       0.91       0.00       0.13
  nonlinear        :     143.68       0.06      89.76      30.44      18.40       0.00       0.00       3.77       0.00       1.25
  benders          :       0.00       0.00       0.00       0.00       0.00       0.00       0.00       0.00       0.00       0.00
  countsols        :       0.00       0.00       0.00       0.00       0.00       0.00       0.00       0.00       0.00       0.00
  components       :       0.00       0.00       0.00       0.00       0.00       0.00       0.00       0.00       0.00       0.00
Propagators        : #Propagate   #ResProp    Cutoffs    DomReds
  dualfix          :          2          0          0          0
  genvbounds       :          0          0          0          0
  nlobbt           :          0          0          0          0
  obbt             :          0          0          0          0
  probing          :          0          0          0          0
  pseudoobj        :      24683          0          0         12
  redcost          :      15449          0          0         25
  rootredcost      :          7          0          0       6152
  symmetry         :          0          0          0          0
  vbounds          :       6116          0          0          0
Propagator Timings :  TotalTime  SetupTime   Presolve  Propagate    ResProp    SB-Prop
  dualfix          :       0.00       0.00       0.00       0.00       0.00       0.00
  genvbounds       :       0.03       0.00       0.00       0.02       0.00       0.01
  nlobbt           :       0.00       0.00       0.00       0.00       0.00       0.00
  obbt             :       0.00       0.00       0.00       0.00       0.00       0.00
  probing          :       0.13       0.00       0.13       0.00       0.00       0.00
  pseudoobj        :       0.08       0.00       0.00       0.08       0.00       0.00
  redcost          :       4.13       0.00       0.00       4.13       0.00       0.00
  rootredcost      :       0.06       0.00       0.00       0.05       0.00       0.01
  symmetry         :       0.09       0.00       0.07       0.02       0.00       0.00
  vbounds          :       0.04       0.00       0.00       0.04       0.00       0.00
Conflict Analysis  :       Time      Calls    Success    DomReds  Conflicts   Literals    Reconvs ReconvLits   Dualrays   Nonzeros   LP Iters   (pool size: [--,--])
  propagation      :       0.00          0          0          -          0        0.0          0        0.0          -          -          -
  infeasible LP    :       0.00          0          0          -          0        0.0          0        0.0          2      364.0          0
  bound exceed. LP :       1.37        227          2          -          0        0.0          0        0.0          0        0.0       1095
  strong branching :       0.00          0          0          -          0        0.0          0        0.0          -          -          0
  pseudo solution  :       0.00          0          0          -          0        0.0          0        0.0          -          -          -
  applied globally :       0.00          -          -          0          0        0.0          -          -          2          -          -
  applied locally  :          -          -          -          0          0        0.0          -          -          0          -          -
Separators         :   ExecTime  SetupTime      Calls  RootCalls    Cutoffs    DomReds  FoundCuts ViaPoolAdd  DirectAdd    Applied ViaPoolApp  DirectApp      Conss
  cut pool         :       0.00          -          0          0          -          -          0          0          -          -          -          -          -    (maximal pool size:          0)
  aggregation      :       2.52       0.00        320         22          0          0          0          0          0          0          0          0          0
  > cmir           :          -          -          -          -          -          -          -          0          0          0          0          0          -
  > flowcover      :          -          -          -          -          -          -          -          0          0          0          0          0          -
  > knapsackcover  :          -          -          -          -          -          -          -          0          0          0          0          0          -
  cgmip            :       0.00       0.00          0          0          0          0          0          0          0          0          0          0          0
  clique           :       0.00       0.00          1          1          0          0          0          0          0          0          0          0          0
  closecuts        :       0.00       0.00          0          0          0          0          0          0          0          0          0          0          0
  convexproj       :       0.00       0.00          0          0          0          0          0          0          0          0          0          0          0
  disjunctive      :       0.00       0.00          0          0          0          0          0          0          0          0          0          0          0
  eccuts           :       0.00       0.00          0          0          0          0          0          0          0          0          0          0          0
  gauge            :       0.00       0.00          0          0          0          0          0          0          0          0          0          0          0
  gomory           :       1.73       0.00        299         10          0          0          0          0          0          0          0          0          0
  > gomorymi       :          -          -          -          -          -          -          -          0          0          0          0          0          -
  > strongcg       :          -          -          -          -          -          -          -          0          0          0          0          0          -
  impliedbounds    :       0.07       0.00        320         22          0          0          0          0          0          0          0          0          0
  interminor       :       0.00       0.00          0          0          0          0          0          0          0          0          0          0          0
  intobj           :       0.00       0.00          0          0          0          0          0          0          0          0          0          0          0
  mcf              :       0.02       0.00          2          2          0          0          0          0          0          0          0          0          0
  minor            :       0.01       0.00          0          0          0          0          0          0          0          0          0          0          0
  mixing           :       0.07       0.00        351         22          0          0          0          0          0          0          0          0          0
  oddcycle         :       0.00       0.00          0          0          0          0          0          0          0          0          0          0          0
  rapidlearning    :       0.00       0.00          0          0          0          0          0          0          0          0          0          0          0
  rlt              :       0.00       0.00         10         10          0          0          0          0          0          0          0          0          0
  zerohalf         :       0.70       0.00        309         20          0          0          0          0          0          0          0          0          0
Cutselectors       :   ExecTime  SetupTime      Calls  RootCalls   Selected     Forced   Filtered  RootSelec   RootForc   RootFilt 
  hybrid           :       0.49       0.00      11441         21     313366          0      19113      10745          0        160
Pricers            :   ExecTime  SetupTime      Calls       Vars
  problem variables:       0.00          -          0          0
Branching Rules    :   ExecTime  SetupTime   BranchLP  BranchExt   BranchPS    Cutoffs    DomReds       Cuts      Conss   Children
  allfullstrong    :       0.00       0.00          0          0          0          0          0          0          0          0
  cloud            :       0.00       0.00          0          0          0          0          0          0          0          0
  distribution     :       0.00       0.00          0          0          0          0          0          0          0          0
  fullstrong       :       0.00       0.00          0          0          0          0          0          0          0          0
  inference        :       0.00       0.00          0          0          0          0          0          0          0          0
  leastinf         :       0.00       0.00          0          0          0          0          0          0          0          0
  lookahead        :       0.00       0.00          0          0          0          0          0          0          0          0
  mostinf          :       0.00       0.00          0          0          0          0          0          0          0          0
  multaggr         :       0.00       0.00          0          0          0          0          0          0          0          0
  nodereopt        :       0.00       0.00          0          0          0          0          0          0          0          0
  pscost           :       0.00       0.00          0          0          0          0          0          0          0          0
  random           :       0.00       0.00          0          0          0          0          0          0          0          0
  relpscost        :      94.72       0.00       2949          0          0          0       1842          0          0       5808
  vanillafullstrong:       0.00       0.00          0          0          0          0          0          0          0          0
Primal Heuristics  :   ExecTime  SetupTime      Calls      Found       Best
  LP solutions     :       0.01          -          -          3          3
  relax solutions  :       0.00          -          -          0          0
  pseudo solutions :       0.00          -          -          0          0
  strong branching :       0.02          -          -          0          0
  actconsdiving    :       0.00       0.00          0          0          0
  adaptivediving   :       7.51       0.00         14          0          0
  alns             :       1.22       0.00          5          0          0
  bound            :       0.00       0.00          0          0          0
  clique           :       0.00       0.00          0          0          0
  coefdiving       :       0.00       0.00          0          0          0
  completesol      :       0.00       0.00          0          0          0
  conflictdiving   :      18.42       0.00         68          0          0
  crossover        :     690.14       0.00          5          1          1
  dins             :       0.00       0.00          0          0          0
  distributiondivin:      26.41       0.00         68          0          0
  dps              :       0.00       0.00          0          0          0
  dualval          :       0.00       0.00          0          0          0
  farkasdiving     :       0.00       0.00          0          0          0
  feaspump         :      33.40       0.00         11          0          0
  fixandinfer      :       0.00       0.00          0          0          0
  fracdiving       :      17.04       0.00         68          0          0
  gins             :       0.03       0.00          0          0          0
  guideddiving     :      15.04       0.00         68          0          0
  indicator        :       0.02       0.00          0          0          0
  indicatordiving  :       0.00       0.00          0          0          0
  intdiving        :       0.00       0.00          0          0          0
  intshifting      :      10.99       0.00         25          0          0
  linesearchdiving :      21.44       0.00         68          0          0
  localbranching   :       0.00       0.00          0          0          0
  locks            :       0.29       0.00          1          0          0
  lpface           :       0.00       0.00          0          0          0
  mpec             :       2.62       0.00          1          0          0
  multistart       :       0.00       0.00          0          0          0
  mutation         :       0.00       0.00          0          0          0
  nlpdiving        :      12.12       0.00          1          0          0
  objpscostdiving  :      50.31       0.00         10          0          0
  octane           :       0.00       0.00          0          0          0
  ofins            :       0.00       0.00          0          0          0
  oneopt           :       0.02       0.00          7          0          0
  padm             :       0.00       0.00          0          0          0
  proximity        :       0.00       0.00          0          0          0
  pscostdiving     :      20.12       0.00         67          0          0
  randrounding     :       2.05       0.00        510          0          0
  rens             :       0.00       0.00          0          0          0
  reoptsols        :       0.00       0.00          0          0          0
  repair           :       0.00       0.00          0          0          0
  rins             :     101.41       0.00          5          0          0
  rootsoldiving    :      37.41       0.00         25          0          0
  rounding         :       0.61       0.00       1517          0          0
  shiftandpropagate:       0.23       0.00          1          0          0
  shifting         :       0.49       0.00        425          0          0
  simplerounding   :       0.02       0.00          0          0          0
  subnlp           :      26.65       0.00          9          3          3
  trivial          :       0.02       0.00          2          0          0
  trivialnegation  :       0.00       0.00          0          0          0
  trustregion      :       0.00       0.00          0          0          0
  trysol           :       0.03       0.00          0          0          0
  twoopt           :       0.00       0.00          0          0          0
  undercover       :       3.69       0.00          1          0          0
  vbounds          :       0.00       0.00          0          0          0
  veclendiving     :      15.67       0.00         67          0          0
  zeroobj          :       0.00       0.00          0          0          0
  zirounding       :       0.18       0.00       1000          0          0
  other solutions  :          -          -          -          0          -
Diving (single)    :      Calls      Nodes   LP Iters Backtracks  Conflicts   MinDepth   MaxDepth   AvgDepth  RoundSols  NLeafSols  MinSolDpt  MaxSolDpt  AvgSolDpt
  actconsdiving    :          0          -          -          -          -          -          -          -          -          -          -          -          -
  coefdiving       :          0          -          -          -          -          -          -          -          -          -          -          -          -
  conflictdiving   :         68        306      62823         26          0         21         48       36.0          0          -          -          -          -
  distributiondivin:         68        530      77582          3          0         19         50       36.4          0          -          -          -          -
  farkasdiving     :          0          -          -          -          -          -          -          -          -          -          -          -          -
  fracdiving       :         68       1513      56535          8          0         42         50       48.6          0          -          -          -          -
  guideddiving     :         68       1251      46739          0          0         33         50       45.8          0          -          -          -          -
  indicatordiving  :          0          -          -          -          -          -          -          -          -          -          -          -          -
  linesearchdiving :         68       1361      69104         12          0         36         50       47.4          0          -          -          -          -
  pscostdiving     :         67       1285      62064          0          0         42         50       49.1          0          -          -          -          -
  veclendiving     :         67       1159      53399         15          0         36         50       45.7          0          -          -          -          -
Diving (adaptive)  :      Calls      Nodes   LP Iters Backtracks  Conflicts   MinDepth   MaxDepth   AvgDepth  RoundSols  NLeafSols  MinSolDpt  MaxSolDpt  AvgSolDpt
  actconsdiving    :          2         62       6738          0          0         37         41       39.0          0          -          -          -          -
  coefdiving       :          3         66       2931          1          0         40         49       44.0          0          -          -          -          -
  conflictdiving   :          0          -          -          -          -          -          -          -          -          -          -          -          -
  distributiondivin:          0          -          -          -          -          -          -          -          -          -          -          -          -
  farkasdiving     :          0          -          -          -          -          -          -          -          -          -          -          -          -
  fracdiving       :          1         18        515          0          0         44         44       44.0          0          -          -          -          -
  guideddiving     :          2         32       1261          0          0         44         45       44.5          0          -          -          -          -
  indicatordiving  :          0          -          -          -          -          -          -          -          -          -          -          -          -
  linesearchdiving :          3         69       5030          0          0         43         49       46.0          0          -          -          -          -
  pscostdiving     :          3        110       5327          0          0         50         50       50.0          0          -          -          -          -
  veclendiving     :          0          -          -          -          -          -          -          -          -          -          -          -          -
Neighborhoods      :      Calls  SetupTime  SolveTime SolveNodes       Sols       Best       Exp3  EpsGreedy        UCB TgtFixRate  Opt  Inf Node Stal  Sol  Usr Othr Actv
  rens             :          0       0.00       0.00          0          0          0    0.00000   -1.00000    1.00000      0.900    0    0    0    0    0    0    0    1
  rins             :          1       0.04       0.22          0          0          0    0.00000   -1.00000    1.00000      0.900    0    0    0    0    0    0    1    1
  mutation         :          0       0.00       0.00          0          0          0    0.00000   -1.00000    1.00000      0.900    0    0    0    0    0    0    0    1
  localbranching   :          1       0.04       0.19          0          0          0    0.00000   -1.00000    1.00000      0.900    0    0    0    0    0    0    1    1
  crossover        :          1       0.05       0.18          0          0          0    0.00000   -1.00000    1.00000      0.900    0    0    0    0    0    0    1    1
  proximity        :          1       0.07       0.30          0          0          0    0.00000   -1.00000    1.00000      0.900    0    0    0    0    0    0    1    1
  zeroobjective    :          1       0.02       0.00          0          0          0    0.00000   -1.00000    1.00000      0.900    0    0    0    0    0    0    1    1
  dins             :          0       0.00       0.00          0          0          0    0.00000   -1.00000    1.00000      0.900    0    0    0    0    0    0    0    1
  trustregion      :          0       0.00       0.00          0          0          0    0.00000   -1.00000    1.00000      0.900    0    0    0    0    0    0    0    0
Expressions        :   #IntEval  IntEvalTi   #RevProp  RevPropTi    DomReds    Cutoffs  #Estimate  EstimTime  Branching  #Simplify SimplifyTi Simplified
  pow              :    3731084       0.96    1826355       0.73    1450077          0     290157       0.12          0       5760       0.00          0
  prod             :    2459500       0.91      18122       0.02        211          0          0       0.00          0       3002       0.00       1500
  sum              :    3336539       1.15    2798826       1.24      80213        643        901       0.00          0       5702       0.00        901
  var              :    6685280       1.87          0       0.00          0          0          0       0.00          0      13561       0.01          0
  varidx           :          0       0.00          0       0.00          0          0          0       0.00          0          0       0.00          0
Nonlinear Conshdlr :   WeakSepa  TightenLP DespTghtLP DespBranch DespCutoff    ForceLP  CanonTime
  enforce          :      65530          0          0          0          0          0
  presolve         :                                                                         0.20
Nlhdlrs            :    Detects  DetectAll DetectTime   #IntEval  IntEvalTi   #RevProp  RevPropTi    DomReds    Cutoffs   #Enforce   EnfoTime       Cuts  Branching
  soc              :       1500       1500       0.00          0       0.00          0       0.00          0          0   15624758      32.63     109102          0
  convex           :          1          1       0.01          0       0.00          0       0.00          0          0       9829       0.10       9825          0
  concave          :          0          0       0.02          0       0.00          0       0.00          0          0          0       0.00          0          0
  quotient         :          0          0       0.02          0       0.00          0       0.00          0          0          0       0.00          0          0
  quadratic        :          0          0       0.00          0       0.00          0       0.00          0          0          0       0.00          0          0
  default          :      11213      56065       0.00    9517987       7.22    4657946      10.17    1530501        643     291058       0.62     289257          0
  bilinear         :          0          0       0.00          0       0.00          0       0.00          0          0          0       0.00          0          0
  perspective      :          0          0       0.01          0       0.00          0       0.00          0          0          0       0.00          0          0
LP                 :       Time      Calls Iterations  Iter/call   Iter/sec  Time-0-It Calls-0-It    ItLimit
  primal LP        :     953.01       3348          0       0.00       0.00     952.98       3348
  dual LP          :    1246.54      17534    3012005     172.57    2416.29       0.44         80
  lex dual LP      :       0.00          0          0       0.00          -
  barrier LP       :       0.00          0          0       0.00          -       0.00          0
  resolve instable :       0.00          0          0       0.00          -
  diving/probing LP:     240.24       2195     684415     311.81    2848.88
  strong branching :      89.02        322     182121     565.59    2045.84          -          -        238
    (at root node) :          -         36      12931     359.19          -
  conflict analysis:       0.60        110       1095       9.95    1825.00
NLP relaxation     :
  solve time       :      12.03 (8 calls)
  convexity        :  nonconvex (527 linear rows, 901 convex ineq., 1500 nonconvex ineq., 0 nonlinear eq. or two-sided ineq.)
NLP Solvers        :  #Problems  ProblemTi    #Solves  SolveTime      #Iter  Time/Iter      #Okay #TimeLimit #IterLimit #LObjLimit #Interrupt  #NumError #EvalError  #OutOfMem #LicenseEr #OtherTerm   #GlobOpt    #LocOpt  #Feasible #LocInfeas #GlobInfea #Unbounded   #Unknown
  ipopt            :         11       2.40         18      37.46        867       0.04         12          0          6          0          0          0          0          0          0          0          0          9          1          3          0          0          5
B&B Tree           :
  number of runs   :          1
  nodes            :       3109 (2904 internal, 205 leaves)
  feasible leaves  :          3
  infeas. leaves   :          0
  objective leaves :        201
  nodes (total)    :       3109 (2904 internal, 205 leaves)
  nodes left       :       2699
  max depth        :         49
  max depth (total):         49
  backtracks       :        663 (21.3%)
  early backtracks :          0 (0.0%)
  nodes exc. ref.  :          0 (0.0%)
  delayed cutoffs  :          0
  repropagations   :        520 (1284 domain reductions, 0 cutoffs)
  avg switch length:       7.15
  switching time   :     897.86
Estim. Tree Size   :       6220
Estimation Tree    : 5809 nodes (3110 visited, 2904 internal, 206 leaves, 2699 open), weight: 0.0000 completed 0.1127
Estimations        :      estim      value      trend resolution     smooth
  wbe              : 385451437551          -          -          -          -
  tree-profile     :         -1          -          -          -          -
  gap              :       3967    0.72314    0.00016          1       3785
  tree-weight      :       6220    0.00000    0.00000          1       6188
  leaf-frequency   :      18771    0.06608    0.00005          1      18329
  ssg              :       5725    0.82206   -0.00031          1       5921
  open-nodes       :       6220 2699.00000    4.15476          1       6188
Root Node          :
  First LP value   : -1.40090809997021e+00
  First LP Iters   :      15976 (4512.99 Iter/sec)
  First LP Time    :       3.54
  Final Dual Bound : -5.74811819750033e-01
  Final Root Iters :      38743
  Root LP Estimate : -2.42702434929832e-01
Solution           :
  Solutions found  :          7 (7 improvements)
  First Solution   : -3.61572616244189e-01   (in run 1, after 1 nodes, 15.67 seconds, depth 0, found by <feaspump>)
  Gap First Sol.   :     287.45 %
  Gap Last Sol.    :      45.27 %
  Primal Bound     : -3.89975549271994e-01   (in run 1, after 992 nodes, 1424.08 seconds, depth 31, found by <crossover>)
  Dual Bound       : -5.39277703406610e-01
  Gap              :      38.29 %
Integrals          :      Total       Avg%
  primal-dual      :  113370.98      31.49
  primal-ref       :          -          - (not evaluated)
  dual-ref         :          -          - (not evaluated)
